
Gurobi 11.0.3 (linux64) logging started Mon Aug 25 13:36:53 2025

Set parameter LogFile to value "/home/yihong/Coding/OR_SUC/SUC_epstheta_results_bigM100000_thread4/case24_ieee_rts_theta0.1_epsilon0.1_gurobi_seed20000_num_gen100_N_WDR50_load_scaling_factor1_proposed_eps_T5quadra_cost_bc1.03.txt"
Set parameter TimeLimit to value 3600
Gurobi Optimizer version 11.0.3 build v11.0.3rc0 (linux64 - "Ubuntu 20.04.6 LTS")

CPU model: AMD EPYC 7532 32-Core Processor, instruction set [SSE2|AVX|AVX2]
Thread count: 64 physical cores, 128 logical processors, using up to 4 threads

Academic license 2399124 - for non-commercial use only - registered to yi___@ed.ac.uk
Optimize a model with 11547 rows, 6251 columns and 272622 nonzeros
Model fingerprint: 0x9e031811
Model has 500 quadratic constraints
Variable types: 5751 continuous, 500 integer (500 binary)
Coefficient statistics:
  Matrix range     [3e-04, 3e+03]
  QMatrix range    [2e-03, 8e-03]
  QLMatrix range   [2e-02, 6e+01]
  Objective range  [1e+00, 1e+00]
  Bounds range     [1e+00, 1e+00]
  RHS range        [1e+00, 9e+03]
Presolve removed 9515 rows and 2763 columns
Presolve time: 0.07s
Presolved: 2032 rows, 3488 columns, 11372 nonzeros
Presolved model has 500 quadratic constraint(s)
Variable types: 2988 continuous, 500 integer (500 binary)

Root relaxation: objective 6.356049e+03, 1565 iterations, 0.02 seconds (0.02 work units)

    Nodes    |    Current Node    |     Objective Bounds      |     Work
 Expl Unexpl |  Obj  Depth IntInf | Incumbent    BestBd   Gap | It/Node Time

     0     0 6356.04886    0    -          - 6356.04886      -     -    0s
     0     0 85695.1624    0  139          - 85695.1624      -     -    0s
     0     0 151123.351    0   78          - 151123.351      -     -    0s
     0     0 151125.461    0   78          - 151125.461      -     -    0s
     0     0 151171.282    0   18          - 151171.282      -     -    0s
     0     0 151171.771    0   18          - 151171.771      -     -    0s
     0     0 151171.771    0   18          - 151171.771      -     -    0s
     0     0 151171.954    0   18          - 151171.954      -     -    0s
     0     2 151171.954    0   18          - 151171.954      -     -    0s
H   54    56                    151204.08547 151175.851  0.02%  17.8    0s
*   54    56              13    151204.08547 151175.851  0.02%  18.0    0s

Cutting planes:
  Gomory: 47
  Implied bound: 107
  MIR: 40
  Flow cover: 185
  RLT: 39

Explored 57 nodes (4943 simplex iterations) in 0.94 seconds (0.88 work units)
Thread count was 4 (of 128 available processors)

Solution count 2: 151204 151204 

Optimal solution found (tolerance 1.00e-03)
Warning: max constraint violation (5.0916e-08) exceeds tolerance
Best objective 1.512040854654e+05, best bound 1.511758510327e+05, gap 0.0187%

Gurobi 11.0.3 (linux64) logging started Mon Aug 25 13:36:55 2025

Set parameter LogFile to value "/home/yihong/Coding/OR_SUC/SUC_epstheta_results_bigM100000_thread4/case24_ieee_rts_theta0.1_epsilon0.1_gurobi_seed20000_num_gen100_N_WDR50_load_scaling_factor1_proposed_eps_T5quadra_cost_bc1.03.txt"
Set parameter TimeLimit to value 3600
Gurobi Optimizer version 11.0.3 build v11.0.3rc0 (linux64 - "Ubuntu 20.04.6 LTS")

CPU model: AMD EPYC 7532 32-Core Processor, instruction set [SSE2|AVX|AVX2]
Thread count: 64 physical cores, 128 logical processors, using up to 4 threads

Academic license 2399124 - for non-commercial use only - registered to yi___@ed.ac.uk
Optimize a model with 11547 rows, 6252 columns and 274121 nonzeros
Model fingerprint: 0xf4b2b29c
Model has 501 quadratic constraints
Variable types: 5752 continuous, 500 integer (500 binary)
Coefficient statistics:
  Matrix range     [3e-04, 3e+03]
  QMatrix range    [2e-03, 5e+01]
  QLMatrix range   [2e-02, 6e+01]
  Objective range  [1e+00, 1e+00]
  Bounds range     [1e-01, 1e+00]
  RHS range        [1e+00, 2e+05]
  QRHS range       [5e+00, 5e+00]
Presolve removed 8744 rows and 2383 columns
Presolve time: 0.07s
Presolved: 3305 rows, 4369 columns, 17887 nonzeros
Presolved model has 500 quadratic constraint(s)
Presolved model has 1 bilinear constraint(s)

Solving non-convex MIQCP

Variable types: 3865 continuous, 504 integer (504 binary)

Root relaxation: objective 1.446989e-03, 4308 iterations, 0.12 seconds (0.16 work units)

    Nodes    |    Current Node    |     Objective Bounds      |     Work
 Expl Unexpl |  Obj  Depth IntInf | Incumbent    BestBd   Gap | It/Node Time

     0     0    0.00145    0    7          -    0.00145      -     -    0s
     0     0    0.00145    0    7          -    0.00145      -     -    0s
H    0     0                       0.0103430    0.00145  86.0%     -    0s
     0     0    0.00936    0    7    0.01034    0.00936  9.46%     -    0s
     0     0    0.00936    0    7    0.01034    0.00936  9.46%     -    0s
     0     0    0.00937    0    7    0.01034    0.00937  9.45%     -    0s
     0     0    0.00937    0    7    0.01034    0.00937  9.41%     -    0s
     0     0    0.00937    0    7    0.01034    0.00937  9.40%     -    0s
     0     0    0.00937    0    7    0.01034    0.00937  9.39%     -    0s
     0     0    0.00937    0    7    0.01034    0.00937  9.39%     -    0s
     0     0    0.00938    0    7    0.01034    0.00938  9.35%     -    0s
H    0     0                       0.0094681    0.00938  0.98%     -    1s
     0     2    0.00945    0    7    0.00947    0.00945  0.19%     -    1s

Cutting planes:
  Gomory: 1
  Implied bound: 6
  MIR: 2
  Flow cover: 1

Explored 9 nodes (4878 simplex iterations) in 1.17 seconds (1.02 work units)
Thread count was 4 (of 128 available processors)

Solution count 2: 0.00946815 0.010343 

Optimal solution found (tolerance 1.00e-03)
Best objective 9.468146113354e-03, best bound 9.465781450124e-03, gap 0.0250%
